81 300 168 161 165 191 180 194 192 181 159 153 162 192 175 168 153 186 185 179 161 174 162 185 169 157 188 195 192 178 181 169 160 173 154 176 163 185 194 179 165 152 183 151 169 182 169 172 167 179 175 152 152 162 188 171 169 175 190 185 177 170 179 188 193 183 188 181 167 181 159 157 183 166 183 176 172 152 199 190 155 198 166 